c 3 - XORSAT
p cnf 30 120
15 22 7 0
-15 -22 7 0
-15 22 -7 0
15 -22 -7 0
9 20 24 0
-9 -20 24 0
-9 20 -24 0
9 -20 -24 0
1 16 20 0
-1 -16 20 0
-1 16 -20 0
1 -16 -20 0
-10 -23 -27 0
-10 23 27 0
10 -23 27 0
10 23 -27 0
28 29 30 0
-28 -29 30 0
-28 29 -30 0
28 -29 -30 0
12 14 19 0
-12 -14 19 0
-12 14 -19 0
12 -14 -19 0
5 13 21 0
-5 -13 21 0
-5 13 -21 0
5 -13 -21 0
-1 -2 -3 0
-1 2 3 0
1 -2 3 0
1 2 -3 0
11 15 16 0
-11 -15 16 0
-11 15 -16 0
11 -15 -16 0
9 16 26 0
-9 -16 26 0
-9 16 -26 0
9 -16 -26 0
-2 -10 -25 0
-2 10 25 0
2 -10 25 0
2 10 -25 0
13 19 29 0
-13 -19 29 0
-13 19 -29 0
13 -19 -29 0
-10 -23 -28 0
-10 23 28 0
10 -23 28 0
10 23 -28 0
17 30 26 0
-17 -30 26 0
-17 30 -26 0
17 -30 -26 0
-11 -23 -27 0
-11 23 27 0
11 -23 27 0
11 23 -27 0
-17 -18 -24 0
-17 18 24 0
17 -18 24 0
17 18 -24 0
-8 -13 -25 0
-8 13 25 0
8 -13 25 0
8 13 -25 0
4 12 30 0
-4 -12 30 0
-4 12 -30 0
4 -12 -30 0
4 6 8 0
-4 -6 8 0
-4 6 -8 0
4 -6 -8 0
-1 -3 -14 0
-1 3 14 0
1 -3 14 0
1 3 -14 0
3 8 21 0
-3 -8 21 0
-3 8 -21 0
3 -8 -21 0
18 19 22 0
-18 -19 22 0
-18 19 -22 0
18 -19 -22 0
-11 -14 -15 0
-11 14 15 0
11 -14 15 0
11 14 -15 0
4 6 27 0
-4 -6 27 0
-4 6 -27 0
4 -6 -27 0
-2 -6 -7 0
-2 6 7 0
2 -6 7 0
2 6 -7 0
5 7 9 0
-5 -7 9 0
-5 7 -9 0
5 -7 -9 0
-17 -26 -28 0
-17 26 28 0
17 -26 28 0
17 26 -28 0
-20 -21 -24 0
-20 21 24 0
20 -21 24 0
20 21 -24 0
-22 -25 -29 0
-22 25 29 0
22 -25 29 0
22 25 -29 0
5 12 18 0
-5 -12 18 0
-5 12 -18 0
5 -12 -18 0
